// bilp.dat
m = 6;
n = 8;
A = [[1,1,1,1,0,0,0,0],
     [0,0,0,0,1,1,1,1],
     [1,0,0,0,1,0,0,0],
     [0,1,0,0,0,1,0,0],
     [0,0,1,0,0,0,1,0],
     [0,0,0,1,0,0,0,1]];
B = [2, 2, 1, 1, 1, 1];
R = [1.2, 0.8, 1.2, 2.1, 0.4, 1.5, 1.2, 0.8];